(declare-fun main@%_988_0 () (_ BitVec 32))
(declare-fun sea.sp0_0 () (_ BitVec 64))
(declare-fun main@%_991_0 () (_ BitVec 32))
(declare-fun main@%_851_0 () (_ BitVec 32))
(declare-fun main@%_854_0 () (_ BitVec 32))
(declare-fun main@%_2498_0 () (_ BitVec 32))
(declare-fun main@%_714_0 () (_ BitVec 32))
(declare-fun main@%_2358_0 () (_ BitVec 32))
(declare-fun main@%_717_0 () (_ BitVec 32))
(declare-fun main@%_2361_0 () (_ BitVec 32))
(declare-fun main@%_577_0 () (_ BitVec 32))
(declare-fun main@%_2221_0 () (_ BitVec 32))
(declare-fun main@%_2495_0 () (_ BitVec 32))
(declare-fun main@%_594_0 () (_ BitVec 32))
(declare-fun main@%_2238_0 () (_ BitVec 32))
(declare-fun main@%_580_0 () (_ BitVec 32))
(declare-fun main@%_2224_0 () (_ BitVec 32))
(declare-fun main@%_440_0 () (_ BitVec 32))
(declare-fun main@%_2084_0 () (_ BitVec 32))
(declare-fun main@%_457_0 () (_ BitVec 32))
(declare-fun main@%_1128_0 () (_ BitVec 32))
(declare-fun main@%_1_0 () (_ BitVec 8))
(declare-fun main@%_2101_0 () (_ BitVec 32))
(declare-fun main@%_868_0 () (_ BitVec 32))
(declare-fun main@%_28_0 () (_ BitVec 32))
(declare-fun main@%_1673_0 () (_ BitVec 32))
(declare-fun main@%_443_0 () (_ BitVec 32))
(declare-fun main@%_2087_0 () (_ BitVec 32))
(declare-fun main@%_731_0 () (_ BitVec 32))
(declare-fun main@%_3_0 () (_ BitVec 8))
(declare-fun main@%_1536_0 () (_ BitVec 32))
(declare-fun main@%_1676_0 () (_ BitVec 32))
(declare-fun main@%_45_0 () (_ BitVec 32))
(declare-fun main@%_1690_0 () (_ BitVec 32))
(declare-fun main@%_169_0 () (_ BitVec 32))
(declare-fun main@%_1813_0 () (_ BitVec 32))
(declare-fun main@%_183_0 () (_ BitVec 32))
(declare-fun main@%_1827_0 () (_ BitVec 32))
(declare-fun main@%_1005_0 () (_ BitVec 32))
(declare-fun main@%_166_0 () (_ BitVec 32))
(declare-fun main@%_1810_0 () (_ BitVec 32))
(declare-fun main@%_306_0 () (_ BitVec 32))
(declare-fun main@%_1950_0 () (_ BitVec 32))
(declare-fun main@%_320_0 () (_ BitVec 32))
(declare-fun main@%_1964_0 () (_ BitVec 32))
(declare-fun main@%_31_0 () (_ BitVec 32))
(declare-fun main@%_1142_0 () (_ BitVec 32))
(declare-fun main@%_303_0 () (_ BitVec 32))
(declare-fun main@%_1947_0 () (_ BitVec 32))
(declare-fun main@%_1125_0 () (_ BitVec 32))
(declare-fun main@%_2375_0 () (_ BitVec 32))
(declare-fun main@%_1265_0 () (_ BitVec 32))
(declare-fun main@%_1279_0 () (_ BitVec 32))
(declare-fun main@%_1262_0 () (_ BitVec 32))
(declare-fun main@%_2512_0 () (_ BitVec 32))
(declare-fun main@%_1402_0 () (_ BitVec 32))
(declare-fun main@%_1416_0 () (_ BitVec 32))
(declare-fun main@%_1399_0 () (_ BitVec 32))
(declare-fun main@%_1539_0 () (_ BitVec 32))
(declare-fun main@%_1553_0 () (_ BitVec 32))

(assert (let ((a!1 (or (= ((_ extract 0 0) main@%_1_0) #b1)
               (xor (= ((_ extract 0 0) main@%_3_0) #b1) true)))
      (a!2 (= ((_ extract 0 0) (bvlshr ((_ extract 23 0) main@%_31_0) #x000017))
              #b1))
      (a!3 (= ((_ extract 0 0) (bvlshr ((_ extract 23 0) main@%_45_0) #x000017))
              #b1))
      (a!5 (= ((_ extract 0 0) (bvlshr ((_ extract 23 0) main@%_28_0) #x000017))
              #b1))
      (a!8 (= ((_ extract 0 0)
                (bvlshr ((_ extract 23 0) main@%_169_0) #x000017))
              #b1))
      (a!9 (= ((_ extract 0 0)
                (bvlshr ((_ extract 23 0) main@%_183_0) #x000017))
              #b1))
      (a!11 (= ((_ extract 0 0)
                 (bvlshr ((_ extract 23 0) main@%_166_0) #x000017))
               #b1))
      (a!14 (= ((_ extract 0 0)
                 (bvlshr ((_ extract 23 0) main@%_306_0) #x000017))
               #b1))
      (a!15 (= ((_ extract 0 0)
                 (bvlshr ((_ extract 23 0) main@%_320_0) #x000017))
               #b1))
      (a!17 (= ((_ extract 0 0)
                 (bvlshr ((_ extract 23 0) main@%_303_0) #x000017))
               #b1))
      (a!20 (= ((_ extract 0 0)
                 (bvlshr ((_ extract 23 0) main@%_443_0) #x000017))
               #b1))
      (a!21 (= ((_ extract 0 0)
                 (bvlshr ((_ extract 23 0) main@%_457_0) #x000017))
               #b1))
      (a!23 (= ((_ extract 0 0)
                 (bvlshr ((_ extract 23 0) main@%_440_0) #x000017))
               #b1))
      (a!26 (= ((_ extract 0 0)
                 (bvlshr ((_ extract 23 0) main@%_580_0) #x000017))
               #b1))
      (a!27 (= ((_ extract 0 0)
                 (bvlshr ((_ extract 23 0) main@%_594_0) #x000017))
               #b1))
      (a!29 (= ((_ extract 0 0)
                 (bvlshr ((_ extract 23 0) main@%_577_0) #x000017))
               #b1))
      (a!32 (= ((_ extract 0 0)
                 (bvlshr ((_ extract 23 0) main@%_717_0) #x000017))
               #b1))
      (a!33 (= ((_ extract 0 0)
                 (bvlshr ((_ extract 23 0) main@%_731_0) #x000017))
               #b1))
      (a!35 (= ((_ extract 0 0)
                 (bvlshr ((_ extract 23 0) main@%_714_0) #x000017))
               #b1))
      (a!38 (= ((_ extract 0 0)
                 (bvlshr ((_ extract 23 0) main@%_854_0) #x000017))
               #b1))
      (a!39 (= ((_ extract 0 0)
                 (bvlshr ((_ extract 23 0) main@%_868_0) #x000017))
               #b1))
      (a!41 (= ((_ extract 0 0)
                 (bvlshr ((_ extract 23 0) main@%_851_0) #x000017))
               #b1))
      (a!44 (= ((_ extract 0 0)
                 (bvlshr ((_ extract 23 0) main@%_991_0) #x000017))
               #b1))
      (a!45 (= ((_ extract 0 0)
                 (bvlshr ((_ extract 23 0) main@%_1005_0) #x000017))
               #b1))
      (a!47 (= ((_ extract 0 0)
                 (bvlshr ((_ extract 23 0) main@%_988_0) #x000017))
               #b1))
      (a!50 (= ((_ extract 0 0)
                 (bvlshr ((_ extract 23 0) main@%_1128_0) #x000017))
               #b1))
      (a!51 (= ((_ extract 0 0)
                 (bvlshr ((_ extract 23 0) main@%_1142_0) #x000017))
               #b1))
      (a!53 (= ((_ extract 0 0)
                 (bvlshr ((_ extract 23 0) main@%_1125_0) #x000017))
               #b1))
      (a!56 (= ((_ extract 0 0)
                 (bvlshr ((_ extract 23 0) main@%_1265_0) #x000017))
               #b1))
      (a!57 (= ((_ extract 0 0)
                 (bvlshr ((_ extract 23 0) main@%_1279_0) #x000017))
               #b1))
      (a!59 (= ((_ extract 0 0)
                 (bvlshr ((_ extract 23 0) main@%_1262_0) #x000017))
               #b1))
      (a!62 (= ((_ extract 0 0)
                 (bvlshr ((_ extract 23 0) main@%_1402_0) #x000017))
               #b1))
      (a!63 (= ((_ extract 0 0)
                 (bvlshr ((_ extract 23 0) main@%_1416_0) #x000017))
               #b1))
      (a!65 (= ((_ extract 0 0)
                 (bvlshr ((_ extract 23 0) main@%_1399_0) #x000017))
               #b1))
      (a!68 (= ((_ extract 0 0)
                 (bvlshr ((_ extract 23 0) main@%_1539_0) #x000017))
               #b1))
      (a!69 (= ((_ extract 0 0)
                 (bvlshr ((_ extract 23 0) main@%_1553_0) #x000017))
               #b1))
      (a!71 (= ((_ extract 0 0)
                 (bvlshr ((_ extract 23 0) main@%_1536_0) #x000017))
               #b1))
      (a!74 (= ((_ extract 0 0)
                 (bvlshr ((_ extract 23 0) main@%_1676_0) #x000017))
               #b1))
      (a!75 (= ((_ extract 0 0)
                 (bvlshr ((_ extract 23 0) main@%_1690_0) #x000017))
               #b1))
      (a!77 (= ((_ extract 0 0)
                 (bvlshr ((_ extract 23 0) main@%_1673_0) #x000017))
               #b1))
      (a!80 (= ((_ extract 0 0)
                 (bvlshr ((_ extract 23 0) main@%_1813_0) #x000017))
               #b1))
      (a!81 (= ((_ extract 0 0)
                 (bvlshr ((_ extract 23 0) main@%_1827_0) #x000017))
               #b1))
      (a!83 (= ((_ extract 0 0)
                 (bvlshr ((_ extract 23 0) main@%_1810_0) #x000017))
               #b1))
      (a!86 (= ((_ extract 0 0)
                 (bvlshr ((_ extract 23 0) main@%_1950_0) #x000017))
               #b1))
      (a!87 (= ((_ extract 0 0)
                 (bvlshr ((_ extract 23 0) main@%_1964_0) #x000017))
               #b1))
      (a!89 (= ((_ extract 0 0)
                 (bvlshr ((_ extract 23 0) main@%_1947_0) #x000017))
               #b1))
      (a!92 (= ((_ extract 0 0)
                 (bvlshr ((_ extract 23 0) main@%_2087_0) #x000017))
               #b1))
      (a!93 (= ((_ extract 0 0)
                 (bvlshr ((_ extract 23 0) main@%_2101_0) #x000017))
               #b1))
      (a!95 (= ((_ extract 0 0)
                 (bvlshr ((_ extract 23 0) main@%_2084_0) #x000017))
               #b1))
      (a!98 (= ((_ extract 0 0)
                 (bvlshr ((_ extract 23 0) main@%_2224_0) #x000017))
               #b1))
      (a!99 (= ((_ extract 0 0)
                 (bvlshr ((_ extract 23 0) main@%_2238_0) #x000017))
               #b1))
      (a!101 (= ((_ extract 0 0)
                  (bvlshr ((_ extract 23 0) main@%_2221_0) #x000017))
                #b1))
      (a!104 (= ((_ extract 0 0)
                  (bvlshr ((_ extract 23 0) main@%_2361_0) #x000017))
                #b1))
      (a!105 (= ((_ extract 0 0)
                  (bvlshr ((_ extract 23 0) main@%_2375_0) #x000017))
                #b1))
      (a!107 (= ((_ extract 0 0)
                  (bvlshr ((_ extract 23 0) main@%_2358_0) #x000017))
                #b1))
      (a!110 (= ((_ extract 0 0)
                  (bvlshr ((_ extract 23 0) main@%_2498_0) #x000017))
                #b1))
      (a!111 (= ((_ extract 0 0)
                  (bvlshr ((_ extract 23 0) main@%_2512_0) #x000017))
                #b1))
      (a!113 (= ((_ extract 0 0)
                  (bvlshr ((_ extract 23 0) main@%_2495_0) #x000017))
                #b1)))
(let ((a!4 (bvult (bvor (ite a!2 #x800000 #x000000)
                        ((_ zero_extend 1) ((_ extract 22 0) main@%_45_0)))
                  (bvor (ite a!3 #x800000 #x000000)
                        ((_ zero_extend 1) ((_ extract 22 0) main@%_31_0)))))
      (a!6 (bvult (bvor (ite a!5 #x800000 #x000000)
                        ((_ zero_extend 1) ((_ extract 22 0) main@%_45_0)))
                  (bvor (ite a!3 #x800000 #x000000)
                        ((_ zero_extend 1) ((_ extract 22 0) main@%_28_0)))))
      (a!7 (bvult (bvor (ite a!5 #x800000 #x000000)
                        ((_ zero_extend 1) ((_ extract 22 0) main@%_31_0)))
                  (bvor (ite a!2 #x800000 #x000000)
                        ((_ zero_extend 1) ((_ extract 22 0) main@%_28_0)))))
      (a!10 (bvult (bvor (ite a!8 #x800000 #x000000)
                         ((_ zero_extend 1) ((_ extract 22 0) main@%_183_0)))
                   (bvor (ite a!9 #x800000 #x000000)
                         ((_ zero_extend 1) ((_ extract 22 0) main@%_169_0)))))
      (a!12 (bvult (bvor (ite a!11 #x800000 #x000000)
                         ((_ zero_extend 1) ((_ extract 22 0) main@%_183_0)))
                   (bvor (ite a!9 #x800000 #x000000)
                         ((_ zero_extend 1) ((_ extract 22 0) main@%_166_0)))))
      (a!13 (bvult (bvor (ite a!11 #x800000 #x000000)
                         ((_ zero_extend 1) ((_ extract 22 0) main@%_169_0)))
                   (bvor (ite a!8 #x800000 #x000000)
                         ((_ zero_extend 1) ((_ extract 22 0) main@%_166_0)))))
      (a!16 (bvult (bvor (ite a!14 #x800000 #x000000)
                         ((_ zero_extend 1) ((_ extract 22 0) main@%_320_0)))
                   (bvor (ite a!15 #x800000 #x000000)
                         ((_ zero_extend 1) ((_ extract 22 0) main@%_306_0)))))
      (a!18 (bvult (bvor (ite a!17 #x800000 #x000000)
                         ((_ zero_extend 1) ((_ extract 22 0) main@%_320_0)))
                   (bvor (ite a!15 #x800000 #x000000)
                         ((_ zero_extend 1) ((_ extract 22 0) main@%_303_0)))))
      (a!19 (bvult (bvor (ite a!17 #x800000 #x000000)
                         ((_ zero_extend 1) ((_ extract 22 0) main@%_306_0)))
                   (bvor (ite a!14 #x800000 #x000000)
                         ((_ zero_extend 1) ((_ extract 22 0) main@%_303_0)))))
      (a!22 (bvult (bvor (ite a!20 #x800000 #x000000)
                         ((_ zero_extend 1) ((_ extract 22 0) main@%_457_0)))
                   (bvor (ite a!21 #x800000 #x000000)
                         ((_ zero_extend 1) ((_ extract 22 0) main@%_443_0)))))
      (a!24 (bvult (bvor (ite a!23 #x800000 #x000000)
                         ((_ zero_extend 1) ((_ extract 22 0) main@%_457_0)))
                   (bvor (ite a!21 #x800000 #x000000)
                         ((_ zero_extend 1) ((_ extract 22 0) main@%_440_0)))))
      (a!25 (bvult (bvor (ite a!23 #x800000 #x000000)
                         ((_ zero_extend 1) ((_ extract 22 0) main@%_443_0)))
                   (bvor (ite a!20 #x800000 #x000000)
                         ((_ zero_extend 1) ((_ extract 22 0) main@%_440_0)))))
      (a!28 (bvult (bvor (ite a!26 #x800000 #x000000)
                         ((_ zero_extend 1) ((_ extract 22 0) main@%_594_0)))
                   (bvor (ite a!27 #x800000 #x000000)
                         ((_ zero_extend 1) ((_ extract 22 0) main@%_580_0)))))
      (a!30 (bvult (bvor (ite a!29 #x800000 #x000000)
                         ((_ zero_extend 1) ((_ extract 22 0) main@%_594_0)))
                   (bvor (ite a!27 #x800000 #x000000)
                         ((_ zero_extend 1) ((_ extract 22 0) main@%_577_0)))))
      (a!31 (bvult (bvor (ite a!29 #x800000 #x000000)
                         ((_ zero_extend 1) ((_ extract 22 0) main@%_580_0)))
                   (bvor (ite a!26 #x800000 #x000000)
                         ((_ zero_extend 1) ((_ extract 22 0) main@%_577_0)))))
      (a!34 (bvult (bvor (ite a!32 #x800000 #x000000)
                         ((_ zero_extend 1) ((_ extract 22 0) main@%_731_0)))
                   (bvor (ite a!33 #x800000 #x000000)
                         ((_ zero_extend 1) ((_ extract 22 0) main@%_717_0)))))
      (a!36 (bvult (bvor (ite a!35 #x800000 #x000000)
                         ((_ zero_extend 1) ((_ extract 22 0) main@%_731_0)))
                   (bvor (ite a!33 #x800000 #x000000)
                         ((_ zero_extend 1) ((_ extract 22 0) main@%_714_0)))))
      (a!37 (bvult (bvor (ite a!35 #x800000 #x000000)
                         ((_ zero_extend 1) ((_ extract 22 0) main@%_717_0)))
                   (bvor (ite a!32 #x800000 #x000000)
                         ((_ zero_extend 1) ((_ extract 22 0) main@%_714_0)))))
      (a!40 (bvult (bvor (ite a!38 #x800000 #x000000)
                         ((_ zero_extend 1) ((_ extract 22 0) main@%_868_0)))
                   (bvor (ite a!39 #x800000 #x000000)
                         ((_ zero_extend 1) ((_ extract 22 0) main@%_854_0)))))
      (a!42 (bvult (bvor (ite a!41 #x800000 #x000000)
                         ((_ zero_extend 1) ((_ extract 22 0) main@%_868_0)))
                   (bvor (ite a!39 #x800000 #x000000)
                         ((_ zero_extend 1) ((_ extract 22 0) main@%_851_0)))))
      (a!43 (bvult (bvor (ite a!41 #x800000 #x000000)
                         ((_ zero_extend 1) ((_ extract 22 0) main@%_854_0)))
                   (bvor (ite a!38 #x800000 #x000000)
                         ((_ zero_extend 1) ((_ extract 22 0) main@%_851_0)))))
      (a!46 (bvult (bvor (ite a!44 #x800000 #x000000)
                         ((_ zero_extend 1) ((_ extract 22 0) main@%_1005_0)))
                   (bvor (ite a!45 #x800000 #x000000)
                         ((_ zero_extend 1) ((_ extract 22 0) main@%_991_0)))))
      (a!48 (bvult (bvor (ite a!47 #x800000 #x000000)
                         ((_ zero_extend 1) ((_ extract 22 0) main@%_1005_0)))
                   (bvor (ite a!45 #x800000 #x000000)
                         ((_ zero_extend 1) ((_ extract 22 0) main@%_988_0)))))
      (a!49 (bvult (bvor (ite a!47 #x800000 #x000000)
                         ((_ zero_extend 1) ((_ extract 22 0) main@%_991_0)))
                   (bvor (ite a!44 #x800000 #x000000)
                         ((_ zero_extend 1) ((_ extract 22 0) main@%_988_0)))))
      (a!52 (bvult (bvor (ite a!50 #x800000 #x000000)
                         ((_ zero_extend 1) ((_ extract 22 0) main@%_1142_0)))
                   (bvor (ite a!51 #x800000 #x000000)
                         ((_ zero_extend 1) ((_ extract 22 0) main@%_1128_0)))))
      (a!54 (bvult (bvor (ite a!53 #x800000 #x000000)
                         ((_ zero_extend 1) ((_ extract 22 0) main@%_1142_0)))
                   (bvor (ite a!51 #x800000 #x000000)
                         ((_ zero_extend 1) ((_ extract 22 0) main@%_1125_0)))))
      (a!55 (bvult (bvor (ite a!53 #x800000 #x000000)
                         ((_ zero_extend 1) ((_ extract 22 0) main@%_1128_0)))
                   (bvor (ite a!50 #x800000 #x000000)
                         ((_ zero_extend 1) ((_ extract 22 0) main@%_1125_0)))))
      (a!58 (bvult (bvor (ite a!56 #x800000 #x000000)
                         ((_ zero_extend 1) ((_ extract 22 0) main@%_1279_0)))
                   (bvor (ite a!57 #x800000 #x000000)
                         ((_ zero_extend 1) ((_ extract 22 0) main@%_1265_0)))))
      (a!60 (bvult (bvor (ite a!59 #x800000 #x000000)
                         ((_ zero_extend 1) ((_ extract 22 0) main@%_1279_0)))
                   (bvor (ite a!57 #x800000 #x000000)
                         ((_ zero_extend 1) ((_ extract 22 0) main@%_1262_0)))))
      (a!61 (bvult (bvor (ite a!59 #x800000 #x000000)
                         ((_ zero_extend 1) ((_ extract 22 0) main@%_1265_0)))
                   (bvor (ite a!56 #x800000 #x000000)
                         ((_ zero_extend 1) ((_ extract 22 0) main@%_1262_0)))))
      (a!64 (bvult (bvor (ite a!62 #x800000 #x000000)
                         ((_ zero_extend 1) ((_ extract 22 0) main@%_1416_0)))
                   (bvor (ite a!63 #x800000 #x000000)
                         ((_ zero_extend 1) ((_ extract 22 0) main@%_1402_0)))))
      (a!66 (bvult (bvor (ite a!65 #x800000 #x000000)
                         ((_ zero_extend 1) ((_ extract 22 0) main@%_1416_0)))
                   (bvor (ite a!63 #x800000 #x000000)
                         ((_ zero_extend 1) ((_ extract 22 0) main@%_1399_0)))))
      (a!67 (bvult (bvor (ite a!65 #x800000 #x000000)
                         ((_ zero_extend 1) ((_ extract 22 0) main@%_1402_0)))
                   (bvor (ite a!62 #x800000 #x000000)
                         ((_ zero_extend 1) ((_ extract 22 0) main@%_1399_0)))))
      (a!70 (bvult (bvor (ite a!68 #x800000 #x000000)
                         ((_ zero_extend 1) ((_ extract 22 0) main@%_1553_0)))
                   (bvor (ite a!69 #x800000 #x000000)
                         ((_ zero_extend 1) ((_ extract 22 0) main@%_1539_0)))))
      (a!72 (bvult (bvor (ite a!71 #x800000 #x000000)
                         ((_ zero_extend 1) ((_ extract 22 0) main@%_1553_0)))
                   (bvor (ite a!69 #x800000 #x000000)
                         ((_ zero_extend 1) ((_ extract 22 0) main@%_1536_0)))))
      (a!73 (bvult (bvor (ite a!71 #x800000 #x000000)
                         ((_ zero_extend 1) ((_ extract 22 0) main@%_1539_0)))
                   (bvor (ite a!68 #x800000 #x000000)
                         ((_ zero_extend 1) ((_ extract 22 0) main@%_1536_0)))))
      (a!76 (bvult (bvor (ite a!74 #x800000 #x000000)
                         ((_ zero_extend 1) ((_ extract 22 0) main@%_1690_0)))
                   (bvor (ite a!75 #x800000 #x000000)
                         ((_ zero_extend 1) ((_ extract 22 0) main@%_1676_0)))))
      (a!78 (bvult (bvor (ite a!77 #x800000 #x000000)
                         ((_ zero_extend 1) ((_ extract 22 0) main@%_1690_0)))
                   (bvor (ite a!75 #x800000 #x000000)
                         ((_ zero_extend 1) ((_ extract 22 0) main@%_1673_0)))))
      (a!79 (bvult (bvor (ite a!77 #x800000 #x000000)
                         ((_ zero_extend 1) ((_ extract 22 0) main@%_1676_0)))
                   (bvor (ite a!74 #x800000 #x000000)
                         ((_ zero_extend 1) ((_ extract 22 0) main@%_1673_0)))))
      (a!82 (bvult (bvor (ite a!80 #x800000 #x000000)
                         ((_ zero_extend 1) ((_ extract 22 0) main@%_1827_0)))
                   (bvor (ite a!81 #x800000 #x000000)
                         ((_ zero_extend 1) ((_ extract 22 0) main@%_1813_0)))))
      (a!84 (bvult (bvor (ite a!83 #x800000 #x000000)
                         ((_ zero_extend 1) ((_ extract 22 0) main@%_1827_0)))
                   (bvor (ite a!81 #x800000 #x000000)
                         ((_ zero_extend 1) ((_ extract 22 0) main@%_1810_0)))))
      (a!85 (bvult (bvor (ite a!83 #x800000 #x000000)
                         ((_ zero_extend 1) ((_ extract 22 0) main@%_1813_0)))
                   (bvor (ite a!80 #x800000 #x000000)
                         ((_ zero_extend 1) ((_ extract 22 0) main@%_1810_0)))))
      (a!88 (bvult (bvor (ite a!86 #x800000 #x000000)
                         ((_ zero_extend 1) ((_ extract 22 0) main@%_1964_0)))
                   (bvor (ite a!87 #x800000 #x000000)
                         ((_ zero_extend 1) ((_ extract 22 0) main@%_1950_0)))))
      (a!90 (bvult (bvor (ite a!89 #x800000 #x000000)
                         ((_ zero_extend 1) ((_ extract 22 0) main@%_1964_0)))
                   (bvor (ite a!87 #x800000 #x000000)
                         ((_ zero_extend 1) ((_ extract 22 0) main@%_1947_0)))))
      (a!91 (bvult (bvor (ite a!89 #x800000 #x000000)
                         ((_ zero_extend 1) ((_ extract 22 0) main@%_1950_0)))
                   (bvor (ite a!86 #x800000 #x000000)
                         ((_ zero_extend 1) ((_ extract 22 0) main@%_1947_0)))))
      (a!94 (bvult (bvor (ite a!92 #x800000 #x000000)
                         ((_ zero_extend 1) ((_ extract 22 0) main@%_2101_0)))
                   (bvor (ite a!93 #x800000 #x000000)
                         ((_ zero_extend 1) ((_ extract 22 0) main@%_2087_0)))))
      (a!96 (bvult (bvor (ite a!95 #x800000 #x000000)
                         ((_ zero_extend 1) ((_ extract 22 0) main@%_2101_0)))
                   (bvor (ite a!93 #x800000 #x000000)
                         ((_ zero_extend 1) ((_ extract 22 0) main@%_2084_0)))))
      (a!97 (bvult (bvor (ite a!95 #x800000 #x000000)
                         ((_ zero_extend 1) ((_ extract 22 0) main@%_2087_0)))
                   (bvor (ite a!92 #x800000 #x000000)
                         ((_ zero_extend 1) ((_ extract 22 0) main@%_2084_0)))))
      (a!100 (bvult (bvor (ite a!98 #x800000 #x000000)
                          ((_ zero_extend 1) ((_ extract 22 0) main@%_2238_0)))
                    (bvor (ite a!99 #x800000 #x000000)
                          ((_ zero_extend 1) ((_ extract 22 0) main@%_2224_0)))))
      (a!102 (bvult (bvor (ite a!101 #x800000 #x000000)
                          ((_ zero_extend 1) ((_ extract 22 0) main@%_2238_0)))
                    (bvor (ite a!99 #x800000 #x000000)
                          ((_ zero_extend 1) ((_ extract 22 0) main@%_2221_0)))))
      (a!103 (bvult (bvor (ite a!101 #x800000 #x000000)
                          ((_ zero_extend 1) ((_ extract 22 0) main@%_2224_0)))
                    (bvor (ite a!98 #x800000 #x000000)
                          ((_ zero_extend 1) ((_ extract 22 0) main@%_2221_0)))))
      (a!106 (bvult (bvor (ite a!104 #x800000 #x000000)
                          ((_ zero_extend 1) ((_ extract 22 0) main@%_2375_0)))
                    (bvor (ite a!105 #x800000 #x000000)
                          ((_ zero_extend 1) ((_ extract 22 0) main@%_2361_0)))))
      (a!108 (bvult (bvor (ite a!107 #x800000 #x000000)
                          ((_ zero_extend 1) ((_ extract 22 0) main@%_2375_0)))
                    (bvor (ite a!105 #x800000 #x000000)
                          ((_ zero_extend 1) ((_ extract 22 0) main@%_2358_0)))))
      (a!109 (bvult (bvor (ite a!107 #x800000 #x000000)
                          ((_ zero_extend 1) ((_ extract 22 0) main@%_2361_0)))
                    (bvor (ite a!104 #x800000 #x000000)
                          ((_ zero_extend 1) ((_ extract 22 0) main@%_2358_0)))))
      (a!112 (bvult (bvor (ite a!110 #x800000 #x000000)
                          ((_ zero_extend 1) ((_ extract 22 0) main@%_2512_0)))
                    (bvor (ite a!111 #x800000 #x000000)
                          ((_ zero_extend 1) ((_ extract 22 0) main@%_2498_0)))))
      (a!114 (bvult (bvor (ite a!113 #x800000 #x000000)
                          ((_ zero_extend 1) ((_ extract 22 0) main@%_2512_0)))
                    (bvor (ite a!111 #x800000 #x000000)
                          ((_ zero_extend 1) ((_ extract 22 0) main@%_2495_0)))))
      (a!115 (bvult (bvor (ite a!113 #x800000 #x000000)
                          ((_ zero_extend 1) ((_ extract 22 0) main@%_2498_0)))
                    (bvor (ite a!110 #x800000 #x000000)
                          ((_ zero_extend 1) ((_ extract 22 0) main@%_2495_0))))))
(let ((a!116 (xor (or (ite a!112 a!114 a!115) (xor (or a!115 a!114) true)) true)))
(let ((a!117 (ite (or (ite a!106 a!108 a!109) (xor (or a!109 a!108) true))
                  (and true a!116)
                  true)))
(let ((a!118 (ite (or (ite a!100 a!102 a!103) (xor (or a!103 a!102) true))
                  a!117
                  true)))
(let ((a!119 (ite (or (ite a!94 a!96 a!97) (xor (or a!97 a!96) true))
                  a!118
                  true)))
(let ((a!120 (ite (or (ite a!88 a!90 a!91) (xor (or a!91 a!90) true))
                  a!119
                  true)))
(let ((a!121 (ite (or (ite a!82 a!84 a!85) (xor (or a!85 a!84) true))
                  a!120
                  true)))
(let ((a!122 (ite (or (ite a!76 a!78 a!79) (xor (or a!79 a!78) true))
                  a!121
                  true)))
(let ((a!123 (ite (or (ite a!70 a!72 a!73) (xor (or a!73 a!72) true))
                  a!122
                  true)))
(let ((a!124 (ite (or (ite a!64 a!66 a!67) (xor (or a!67 a!66) true))
                  a!123
                  true)))
(let ((a!125 (ite (or (ite a!58 a!60 a!61) (xor (or a!61 a!60) true))
                  a!124
                  true)))
(let ((a!126 (ite (or (ite a!52 a!54 a!55) (xor (or a!55 a!54) true))
                  a!125
                  true)))
(let ((a!127 (ite (or (ite a!46 a!48 a!49) (xor (or a!49 a!48) true))
                  a!126
                  true)))
(let ((a!128 (ite (or (ite a!40 a!42 a!43) (xor (or a!43 a!42) true))
                  a!127
                  true)))
(let ((a!129 (ite (or (ite a!34 a!36 a!37) (xor (or a!37 a!36) true))
                  a!128
                  true)))
(let ((a!130 (ite (or (ite a!28 a!30 a!31) (xor (or a!31 a!30) true))
                  a!129
                  true)))
(let ((a!131 (ite (or (ite a!22 a!24 a!25) (xor (or a!25 a!24) true))
                  a!130
                  true)))
(let ((a!132 (ite (or (ite a!16 a!18 a!19) (xor (or a!19 a!18) true))
                  a!131
                  true)))
(let ((a!133 (ite (or (ite a!10 a!12 a!13) (xor (or a!13 a!12) true))
                  a!132
                  true)))
(let ((a!134 (ite (or (ite a!4 a!6 a!7) (xor (or a!7 a!6) true)) a!133 true)))
  (and (= #b000 ((_ extract 2 0) sea.sp0_0))
       (bvule sea.sp0_0 #x00000000c0000000)
       (bvuge sea.sp0_0 #x00000000bf700000)
       (ite a!1 a!134 true))))))))))))))))))))))))
(check-sat)
